(set-info :source |printed by MathSAT|)
(declare-fun |.x{310}| () Int)
(declare-fun |.x{610}| () Int)
(declare-fun |.x{311}| () (Array Int Int))
(declare-fun |.x{611}| () (Array Int Int))
(declare-fun |.x{312}| () (Array Int Int))
(declare-fun |.x{612}| () (Array Int Int))
(declare-fun |.x{341}| () (Array Int (Array Int Int)))
(declare-fun |.x{613}| () (Array Int (Array Int Int)))
(declare-fun |.x{314}| () (Array Int (Array Int Int)))
(declare-fun |.x{614}| () (Array Int (Array Int Int)))
(declare-fun |.x{315}| () Int)
(declare-fun |.x{615}| () Int)
(declare-fun |.x{316}| () Int)
(declare-fun |.x{616}| () Int)
(declare-fun |.x{317}| () (Array Int Int))
(declare-fun |.x{617}| () (Array Int Int))
(declare-fun |.x{318}| () (Array Int Int))
(declare-fun |.x{618}| () (Array Int Int))
(declare-fun |.x{319}| () Int)
(declare-fun |.x{619}| () Int)
(declare-fun |.x{320}| () Int)
(declare-fun |.x{620}| () Int)
(declare-fun |.x{321}| () Int)
(declare-fun |.x{621}| () Int)
(declare-fun |.x{322}| () Int)
(declare-fun |.x{622}| () Int)
(declare-fun |.x{323}| () Int)
(declare-fun |.x{623}| () Int)
(declare-fun |.x{324}| () Int)
(declare-fun |.x{624}| () Int)
(declare-fun |.x{325}| () Int)
(declare-fun |.x{625}| () Int)
(declare-fun |.x{326}| () Int)
(declare-fun |.x{626}| () Int)
(declare-fun |.x{327}| () Int)
(declare-fun |.x{627}| () Int)
(declare-fun |.x{356}| () Int)
(declare-fun |.x{628}| () Int)
(declare-fun |.x{329}| () Int)
(declare-fun |.x{629}| () Int)
(declare-fun |.x{358}| () Int)
(declare-fun |.x{630}| () Int)
(declare-fun |.x{331}| () Int)
(declare-fun |.x{631}| () Int)
(declare-fun |.x{332}| () Int)
(declare-fun |.x{632}| () Int)
(declare-fun |.x{361}| () Int)
(declare-fun |.x{633}| () Int)
(declare-fun |.x{362}| () Int)
(declare-fun |.x{634}| () Int)
(declare-fun |.x{335}| () Int)
(declare-fun |.x{635}| () Int)
(declare-fun |.x{364}| () Int)
(declare-fun |.x{636}| () Int)
(declare-fun |.x{337}| () Bool)
(declare-fun |.x{581}| () Bool)
(declare-fun |.loc{3}| () Bool)
(declare-fun |.loc{5}| () Bool)
(declare-fun |.loc{4}| () Bool)
(declare-fun |.loc{6}| () Bool)
(declare-fun |.x{439}| () Int)
(declare-fun |.x{111}| () (Array Int Int))
(define-fun .def_64 () Bool (! |.loc{3}| :next |.loc{5}|))
(define-fun .def_201 () Bool (not .def_64))
(define-fun .def_66 () Bool (! |.loc{4}| :next |.loc{6}|))
(define-fun .def_98 () Bool (not .def_66))
(define-fun .def_285 () Bool (and .def_98 .def_201))
(define-fun .def_28 () Int (! |.x{320}| :next |.x{620}|))
(define-fun .def_26 () Int (! |.x{319}| :next |.x{619}|))
(define-fun .def_279 () Bool (= .def_26 .def_28))
(define-fun .def_16 () (Array Int (Array Int Int)) (! |.x{314}| :next |.x{614}|))
(define-fun .def_14 () (Array Int (Array Int Int)) (! |.x{341}| :next |.x{613}|))
(define-fun .def_278 () Bool (= .def_14 .def_16))
(define-fun .def_280 () Bool (and .def_278 .def_279))
(define-fun .def_62 () Bool (! |.x{337}| :next |.x{581}|))
(define-fun .def_277 () Bool (not .def_62))
(define-fun .def_281 () Bool (and .def_277 .def_280))
(define-fun .def_20 () Int (! |.x{316}| :next |.x{616}|))
(define-fun .def_18 () Int (! |.x{315}| :next |.x{615}|))
(define-fun .def_276 () Bool (= .def_18 .def_20))
(define-fun .def_282 () Bool (and .def_276 .def_281))
(define-fun .def_24 () (Array Int Int) (! |.x{318}| :next |.x{618}|))
(define-fun .def_22 () (Array Int Int) (! |.x{317}| :next |.x{617}|))
(define-fun .def_275 () Bool (= .def_22 .def_24))
(define-fun .def_283 () Bool (and .def_275 .def_282))
(define-fun .def_12 () (Array Int Int) (! |.x{312}| :next |.x{612}|))
(define-fun .def_10 () (Array Int Int) (! |.x{311}| :next |.x{611}|))
(define-fun .def_274 () Bool (= .def_10 .def_12))
(define-fun .def_284 () Bool (and .def_274 .def_283))
(define-fun .def_286 () Bool (! (and .def_284 .def_285) :init true))
(define-fun .def_271 () Bool (= .def_16 |.x{614}|))
(define-fun .def_269 () Bool (= .def_12 |.x{612}|))
(define-fun .def_8 () Int (! |.x{310}| :next |.x{610}|))
(define-fun .def_267 () Bool (= .def_8 |.x{610}|))
(define-fun .def_265 () Bool (= .def_28 |.x{620}|))
(define-fun .def_263 () Bool (= .def_20 |.x{616}|))
(define-fun .def_262 () Bool (= .def_24 |.x{618}|))
(define-fun .def_264 () Bool (and .def_262 .def_263))
(define-fun .def_266 () Bool (and .def_264 .def_265))
(define-fun .def_268 () Bool (and .def_266 .def_267))
(define-fun .def_270 () Bool (and .def_268 .def_269))
(define-fun .def_272 () Bool (and .def_270 .def_271))
(define-fun .def_121 () Bool (= |.x{439}| 2))
(define-fun .def_249 () Bool (not .def_121))
(define-fun .def_250 () Bool (or .def_62 .def_249))
(define-fun .def_30 () Int (! |.x{321}| :next |.x{621}|))
(define-fun .def_74 () Bool (= .def_30 |.x{621}|))
(define-fun .def_244 () Bool (and |.x{581}| .def_74))
(define-fun .def_245 () Bool (and |.x{581}| .def_244))
(define-fun .def_40 () Int (! |.x{326}| :next |.x{626}|))
(define-fun .def_85 () Bool (= .def_40 |.x{626}|))
(define-fun .def_246 () Bool (and .def_85 .def_245))
(define-fun .def_42 () Int (! |.x{327}| :next |.x{627}|))
(define-fun .def_87 () Bool (= .def_42 |.x{627}|))
(define-fun .def_247 () Bool (and .def_87 .def_246))
(define-fun .def_248 () Bool (and .def_64 .def_247))
(define-fun .def_251 () Bool (and .def_248 .def_250))
(define-fun .def_252 () Bool (and .def_98 .def_251))
(define-fun .def_32 () Int (! |.x{322}| :next |.x{622}|))
(define-fun .def_113 () Bool (= .def_32 |.x{630}|))
(define-fun .def_38 () Int (! |.x{325}| :next |.x{625}|))
(define-fun .def_111 () Bool (= .def_38 |.x{636}|))
(define-fun .def_106 () (Array Int Int) (select .def_14 |.x{630}|))
(define-fun .def_107 () (Array Int Int) (store .def_106 |.x{636}| 2))
(define-fun .def_108 () (Array Int (Array Int Int)) (store .def_14 |.x{630}| .def_107))
(define-fun .def_109 () Bool (= |.x{613}| .def_108))
(define-fun .def_101 () (Array Int Int) (select |.x{613}| .def_42))
(define-fun .def_102 () Int (select .def_101 .def_30))
(define-fun .def_104 () Bool (= .def_102 |.x{439}|))
(define-fun .def_110 () Bool (and .def_104 .def_109))
(define-fun .def_112 () Bool (and .def_110 .def_111))
(define-fun .def_114 () Bool (and .def_112 .def_113))
(define-fun .def_115 () Bool (or .def_62 .def_114))
(define-fun .def_253 () Bool (and .def_115 .def_252))
(define-fun .def_117 () Bool (= .def_10 |.x{611}|))
(define-fun .def_254 () Bool (and .def_117 .def_253))
(define-fun .def_240 () (Array Int Int) (store .def_10 .def_42 0))
(define-fun .def_241 () Bool (= |.x{611}| .def_240))
(define-fun .def_242 () Bool (or .def_62 .def_241))
(define-fun .def_238 () Bool (= .def_14 |.x{613}|))
(define-fun .def_44 () Int (! |.x{356}| :next |.x{628}|))
(define-fun .def_236 () Bool (= .def_44 |.x{628}|))
(define-fun .def_48 () Int (! |.x{358}| :next |.x{630}|))
(define-fun .def_234 () Bool (= .def_48 |.x{630}|))
(define-fun .def_54 () Int (! |.x{361}| :next |.x{633}|))
(define-fun .def_232 () Bool (= .def_54 |.x{633}|))
(define-fun .def_56 () Int (! |.x{362}| :next |.x{634}|))
(define-fun .def_230 () Bool (= .def_56 |.x{634}|))
(define-fun .def_60 () Int (! |.x{364}| :next |.x{636}|))
(define-fun .def_228 () Bool (= .def_60 |.x{636}|))
(define-fun .def_225 () Bool (and .def_66 .def_201))
(define-fun .def_223 () Bool (= |.x{626}| |.x{629}|))
(define-fun .def_224 () Bool (or |.x{581}| .def_223))
(define-fun .def_226 () Bool (and .def_224 .def_225))
(define-fun .def_140 () Bool (= .def_62 |.x{581}|))
(define-fun .def_227 () Bool (and .def_140 .def_226))
(define-fun .def_229 () Bool (and .def_227 .def_228))
(define-fun .def_231 () Bool (and .def_229 .def_230))
(define-fun .def_233 () Bool (and .def_231 .def_232))
(define-fun .def_235 () Bool (and .def_233 .def_234))
(define-fun .def_237 () Bool (and .def_235 .def_236))
(define-fun .def_239 () Bool (and .def_237 .def_238))
(define-fun .def_243 () Bool (and .def_239 .def_242))
(define-fun .def_255 () Bool (or .def_243 .def_254))
(define-fun .def_70 () Bool (= .def_22 |.x{617}|))
(define-fun .def_68 () Bool (= .def_18 |.x{615}|))
(define-fun .def_212 () Bool (and .def_68 .def_70))
(define-fun .def_72 () Bool (= .def_26 |.x{619}|))
(define-fun .def_213 () Bool (and .def_72 .def_212))
(define-fun .def_76 () Bool (= .def_32 |.x{622}|))
(define-fun .def_214 () Bool (and .def_76 .def_213))
(define-fun .def_34 () Int (! |.x{323}| :next |.x{623}|))
(define-fun .def_79 () Bool (= .def_34 |.x{623}|))
(define-fun .def_215 () Bool (and .def_79 .def_214))
(define-fun .def_36 () Int (! |.x{324}| :next |.x{624}|))
(define-fun .def_81 () Bool (= .def_36 |.x{624}|))
(define-fun .def_216 () Bool (and .def_81 .def_215))
(define-fun .def_83 () Bool (= .def_38 |.x{625}|))
(define-fun .def_217 () Bool (and .def_83 .def_216))
(define-fun .def_46 () Int (! |.x{329}| :next |.x{629}|))
(define-fun .def_89 () Bool (= .def_46 |.x{629}|))
(define-fun .def_218 () Bool (and .def_89 .def_217))
(define-fun .def_50 () Int (! |.x{331}| :next |.x{631}|))
(define-fun .def_91 () Bool (= .def_50 |.x{631}|))
(define-fun .def_219 () Bool (and .def_91 .def_218))
(define-fun .def_52 () Int (! |.x{332}| :next |.x{632}|))
(define-fun .def_93 () Bool (= .def_52 |.x{632}|))
(define-fun .def_220 () Bool (and .def_93 .def_219))
(define-fun .def_58 () Int (! |.x{335}| :next |.x{635}|))
(define-fun .def_95 () Bool (= .def_58 |.x{635}|))
(define-fun .def_221 () Bool (and .def_95 .def_220))
(define-fun .def_222 () Bool (and |.loc{6}| .def_221))
(define-fun .def_256 () Bool (and .def_222 .def_255))
(define-fun .def_146 () Bool (= |.x{439}| 0))
(define-fun .def_207 () Bool (not .def_146))
(define-fun .def_147 () Bool (= |.x{625}| |.x{631}|))
(define-fun .def_208 () Bool (and .def_147 .def_207))
(define-fun .def_149 () Bool (= |.x{622}| |.x{623}|))
(define-fun .def_209 () Bool (and .def_149 .def_208))
(define-fun .def_210 () Bool (or |.x{581}| .def_209))
(define-fun .def_204 () Bool (not |.loc{6}|))
(define-fun .def_195 () Bool (= |.x{619}| 0))
(define-fun .def_194 () Bool (= |.x{615}| 0))
(define-fun .def_196 () Bool (and .def_194 .def_195))
(define-fun .def_192 () (Array Int Int) (store .def_10 0 0))
(define-fun .def_193 () Bool (= |.x{111}| .def_192))
(define-fun .def_197 () Bool (and .def_193 .def_196))
(define-fun .def_198 () Bool (or .def_62 .def_197))
(define-fun .def_187 () (Array Int Int) (store .def_22 |.x{627}| 4))
(define-fun .def_188 () Bool (= |.x{617}| .def_187))
(define-fun .def_181 () Bool (<= |.x{610}| |.x{627}|))
(define-fun .def_182 () Bool (not .def_181))
(define-fun .def_172 () (Array Int Int) (select .def_14 |.x{627}|))
(define-fun .def_173 () (Array Int Int) (store .def_172 |.x{621}| 1))
(define-fun .def_174 () (Array Int (Array Int Int)) (store .def_14 |.x{627}| .def_173))
(define-fun .def_175 () Bool (= |.x{613}| .def_174))
(define-fun .def_168 () Bool (= |.x{631}| |.x{635}|))
(define-fun .def_167 () Bool (= |.x{621}| |.x{635}|))
(define-fun .def_169 () Bool (and .def_167 .def_168))
(define-fun .def_166 () Bool (= |.x{623}| |.x{624}|))
(define-fun .def_170 () Bool (and .def_166 .def_169))
(define-fun .def_165 () Bool (= |.x{621}| 0))
(define-fun .def_171 () Bool (and .def_165 .def_170))
(define-fun .def_176 () Bool (and .def_171 .def_175))
(define-fun .def_163 () Int (select |.x{111}| |.x{627}|))
(define-fun .def_164 () Bool (= .def_163 0))
(define-fun .def_177 () Bool (and .def_164 .def_176))
(define-fun .def_162 () Bool (<= (- 2147483648) |.x{439}|))
(define-fun .def_178 () Bool (and .def_162 .def_177))
(define-fun .def_159 () Bool (= |.x{627}| 0))
(define-fun .def_160 () Bool (not .def_159))
(define-fun .def_179 () Bool (and .def_160 .def_178))
(define-fun .def_157 () (Array Int Int) (store |.x{111}| |.x{627}| 1))
(define-fun .def_158 () Bool (= |.x{611}| .def_157))
(define-fun .def_180 () Bool (and .def_158 .def_179))
(define-fun .def_183 () Bool (and .def_180 .def_182))
(define-fun .def_154 () Bool (<= |.x{439}| 2147483647))
(define-fun .def_184 () Bool (and .def_154 .def_183))
(define-fun .def_152 () Bool (= |.x{624}| |.x{627}|))
(define-fun .def_185 () Bool (and .def_152 .def_184))
(define-fun .def_189 () Bool (and .def_185 .def_188))
(define-fun .def_190 () Bool (or |.x{581}| .def_189))
(define-fun .def_191 () Bool (and .def_85 .def_190))
(define-fun .def_199 () Bool (and .def_191 .def_198))
(define-fun .def_200 () Bool (and .def_98 .def_199))
(define-fun .def_202 () Bool (and .def_200 .def_201))
(define-fun .def_203 () Bool (and .def_140 .def_202))
(define-fun .def_205 () Bool (and .def_203 .def_204))
(define-fun .def_211 () Bool (and .def_205 .def_210))
(define-fun .def_257 () Bool (or .def_211 .def_256))
(define-fun .def_148 () Bool (and .def_146 .def_147))
(define-fun .def_150 () Bool (and .def_148 .def_149))
(define-fun .def_151 () Bool (or |.x{581}| .def_150))
(define-fun .def_206 () Bool (and .def_151 .def_205))
(define-fun .def_258 () Bool (or .def_206 .def_257))
(define-fun .def_259 () Bool (and |.loc{5}| .def_258))
(define-fun .def_122 () Bool (or |.x{581}| .def_121))
(define-fun .def_123 () Bool (and .def_68 .def_122))
(define-fun .def_124 () Bool (and .def_70 .def_123))
(define-fun .def_125 () Bool (and .def_72 .def_124))
(define-fun .def_126 () Bool (and .def_74 .def_125))
(define-fun .def_127 () Bool (and .def_76 .def_126))
(define-fun .def_128 () Bool (and .def_79 .def_127))
(define-fun .def_129 () Bool (and .def_81 .def_128))
(define-fun .def_130 () Bool (and .def_83 .def_129))
(define-fun .def_131 () Bool (and .def_85 .def_130))
(define-fun .def_132 () Bool (and .def_87 .def_131))
(define-fun .def_133 () Bool (and .def_89 .def_132))
(define-fun .def_134 () Bool (and .def_91 .def_133))
(define-fun .def_135 () Bool (and .def_93 .def_134))
(define-fun .def_136 () Bool (and .def_95 .def_135))
(define-fun .def_137 () Bool (and .def_64 .def_136))
(define-fun .def_138 () Bool (and .def_98 .def_137))
(define-fun .def_139 () Bool (and |.loc{6}| .def_138))
(define-fun .def_141 () Bool (and .def_139 .def_140))
(define-fun .def_142 () Bool (and .def_115 .def_141))
(define-fun .def_143 () Bool (and .def_117 .def_142))
(define-fun .def_119 () Bool (not |.loc{5}|))
(define-fun .def_144 () Bool (and .def_119 .def_143))
(define-fun .def_260 () Bool (or .def_144 .def_259))
(define-fun .def_69 () Bool (and .def_62 .def_68))
(define-fun .def_71 () Bool (and .def_69 .def_70))
(define-fun .def_73 () Bool (and .def_71 .def_72))
(define-fun .def_75 () Bool (and .def_73 .def_74))
(define-fun .def_77 () Bool (and .def_75 .def_76))
(define-fun .def_78 () Bool (and |.x{581}| .def_77))
(define-fun .def_80 () Bool (and .def_78 .def_79))
(define-fun .def_82 () Bool (and .def_80 .def_81))
(define-fun .def_84 () Bool (and .def_82 .def_83))
(define-fun .def_86 () Bool (and .def_84 .def_85))
(define-fun .def_88 () Bool (and .def_86 .def_87))
(define-fun .def_90 () Bool (and .def_88 .def_89))
(define-fun .def_92 () Bool (and .def_90 .def_91))
(define-fun .def_94 () Bool (and .def_92 .def_93))
(define-fun .def_96 () Bool (and .def_94 .def_95))
(define-fun .def_97 () Bool (and .def_64 .def_96))
(define-fun .def_99 () Bool (and .def_97 .def_98))
(define-fun .def_100 () Bool (and |.loc{6}| .def_99))
(define-fun .def_116 () Bool (and .def_100 .def_115))
(define-fun .def_118 () Bool (and .def_116 .def_117))
(define-fun .def_120 () Bool (and .def_118 .def_119))
(define-fun .def_261 () Bool (or .def_120 .def_260))
(define-fun .def_273 () Bool (! (and .def_261 .def_272) :trans true))
(define-fun .def_287 () Bool (and .def_64 .def_66))
(define-fun .def_288 () Bool (and .def_62 .def_287))
(define-fun .def_289 () Bool (! (not .def_288) :invar-property 0))
(assert true)
